AJax.txt
Variables:
	- XAt € R+ - quantité vendue Alpha (en unités de produit) de la semaine t (t = 1..4)
	- XBt € R+ - quantité vendue Béta (en unités de produit) de la semaine t (t = 1..4)
	- XGt € R+ - quantité vendue Gamma (en unités de produit) de la semaine t (t = 1..4)
	- PAt € R+ - quantité produite de Alpha (en unités de produit) de la semaine t (t = 1..4)
	- PBt € R+ - quantité produite de produit Béta (en unités de produit) de la semaine t (t = 1..4)
	- PGt € R+ - quantité produite de produit Gamma (en unités de produit) de la semaine t (t = 1..4)
	- SAt € R+ - quantité stockée de produit Alpha (en unités de produit) a la fin de la semaine t (t= 0..4)
	- SBt € R+ - quantité stockée de produit Beta (en unités de produit) a la fin de la semaine t (t= 0..4)
	- SGt € R+ - quantité stockée de produit Gamma (en unités de produit) a la fin de la semaine t (t= 0..4)

Objectif: maximiser E (350XAt  + 470XBt + 610XGt) - 9SAt - 10SBt - 18SGt

Contraintes: 
	
Temps de travail requis pour chaque ordinateur:	
	10PAt + 15PBt + 20PGt <= 2000
	
Temps de test sur la ligne A:
	PAt + PBt <= 120
	
Temps de test sur la ligne C:
	PGt <= 48
	
Quantité minimum vendue:
	XAt >= 20
	XBt >= 20
	xGt >= 20
	
Quantité maximum vendue:
	XA1 <= 60
	XA2 <= 80
	XA3 <= 120
	XA4 <= 140
	XB1 <= 40
	XB2 <= 40
	XB3 <= 40
	XB4 <= 40
	XG1 <= 50
	XG2 <= 40
	XG3 <= 30
	XG4 <= 70
		
Stock restant a la fin de la semaine t:
	SAt = SAt-1 + PAt - XAt
